
Log for '' Clone_2 (V22.1.1.0) Tue Dec 17 19:29:28 2024


Log for 'PSC1-C1-50.lp' Clone_2 (V22.1.1.0) Tue Dec 17 20:19:15 2024

Tried aggregator 1 time.
LP Presolve eliminated 450 rows and 35150 columns.
All rows and columns eliminated.
Presolve time = 0.01 sec. (12.76 ticks)

Dual simplex solved model.

